(set-logic QF_S)
(declare-const x String)
(assert (str.in.re x (re.inter (re.* (re.comp  (str.to.re "\u{7d}")) )  (re.++ (re.* (re.comp  (str.to.re "\u{7d}")) ) (re.++  (re.++  (str.to.re "\u{5c}") (re.++  (re.union  (str.to.re "\u{73}")  (str.to.re "\u{53}"))  (re.union  (str.to.re "\u{76}")  (str.to.re "\u{56}")))) (re.* (re.comp  (str.to.re "\u{7d}")) ))) (re.* (re.comp  (str.to.re "\u{7d}")) ) )))
(check-sat)
(get-model)